10
5
3401
0
0
37 53 54 57 51
1
0
49 58 52 58 51
2
0
54 51 58 49 47
3
0
52 46 57 70 56
4
0
59 38 51 68 42
5
0
45 53 46 33 33
6
0
45 48 51 44 41
7
0
47 53 56 51 64
8
0
52 32 57 59 71
9
0
54 56 56 30 51
